1606.0 20632.0 400.0 
1601.0 21334.0 1092.0 
1622.0 20796.0 256.0 
1597.0 21906.0 1913.0 
1625.0 20748.0 394.0 
1597.0 21838.0 1974.0 
1597.0 21925.0 1905.0 
1621.0 20587.0 448.0 
1723.0 20579.0 389.0 
1616.0 20806.0 308.0 
1633.0 20844.0 15.0 
1622.0 20796.0 256.0 
1592.0 21969.0 1570.0 
1736.0 20608.0 387.0 
1597.0 21772.0 2158.0 
1605.0 20717.0 400.0 
1626.0 20967.0 0.0 
1615.0 20578.0 524.0 
1626.0 20967.0 0.0 
1658.0 20572.0 432.0 
1621.0 20587.0 448.0 
1615.0 20578.0 524.0 
1622.0 21073.0 53.0 
1616.0 20806.0 308.0 
1597.0 21906.0 1913.0 
1599.0 21491.0 1122.0 
1633.0 20631.0 61.0 
1597.0 21927.0 1872.0 
1611.0 20628.0 396.0 
